120
150
47
65
83
72
83
29
67
72
84
56
83
35
25
66
100
25
49
59
52
88
29
87
63
42
99
42
36
38
90
28
31
32
74
27
49
32
100
49
87
36
94
56
88
61
78
93
72
57
43
28
44
89
32
49
100
35
72
83
78
28
56
35
87
61
71
21
59
58
89
61
39
49
57
78
72
43
29
93
57
27
67
43
71
72
40
25
78
47
86
76
31
64
67
83
56
94
49
100
72
35
65
84
43
49
100
83
31
49
100
43
36
25
61
89
35
72
43
49
100
98
